19 45 52 63 8 75 53 18 38 7 46 85 21 5 4 13 40 70 77 79 98 96 37 83 84 30 90 47 14 39 42 24 34 29 20 6 72 36 61 2 65 99 82 66 1 22 17 89 80 64 73 0 78 56 87 95 91 67 48 58 28 74 88 11 92 71 33 12 94 62 86 27 9 57 81 50 69 25 59 10 51 76 97 31 3 44 23 32 60 93 15 54 16 49 68 26 41 55 35 43 

